objective value:                                    0
lambda[1,30]*                                       2 	(obj:0)
lambda[1,43]*                                       4 	(obj:0)
lambda[1,46]*                                       4 	(obj:0)
lambda[0,48]*                                       5 	(obj:0)
lambda[0,54]*                                       3 	(obj:0)
lambda[0,55]*                                       2 	(obj:0)
